dates = {'2022-02-22','2022-02-23','2022-02-24','2022-02-25','2022-02-26','2022-02-27','2022-02-28'};

daysOfWeek = [Tuesday,Wednesday,Thursday,Friday,Saturday,Sunday,Monday];

% For this week, how many people will be here.
numPeople = [157,157,148,162,148,148,135];

% Physical workers need 50 to 100 % more nutrients per day.
numPhysicalWorkers = [47.0,47.0,47.0,46.0,46.0,46.0,46.0];

% Males need +25% more nutrients per day.
numMen = [129,135,129,135,135,121,121];

% Num people who do not eat categories. contains = {none, meat, milk, gluten, egg, nut, seed, sugars}
numRefusals = [| 0,4,0,0,0,0,17,16 | 0,4,0,0,0,0,17,16 | 0,5,0,0,5,17,24,0 | 0,1,10,0,4,0,3,0 | 0,5,2,0,0,7,6,6 | 0,5,2,0,0,7,6,6 | 0,0,1,0,0,0,0,14 |];

